0 4378
1 4308
2 4307
3 4300
5 4276
12 4272
16 4267
19 4249
20 4175
21 4162
25 4142
31 4136
34 4106
35 4082
39 4048
45 4015
52 4000
54 3953
60 3936
65 3929
70 3901
81 3888
84 3872
92 3861
101 3860
103 3851
117 3850
137 3849
167 3840
173 3838
184 3836
197 3828
201 3785
203 3767
223 3760
225 3755
237 3743
395 3732
428 3727
451 3726
477 3722
527 3709
601 3708
612 3705
651 3699
673 3691
746 3688
752 3680
754 3677
839 3670
977 3668
1391 3666
1403 3665
1426 3664
1544 3657
1581 3656
1587 3652
1701 3648
2004 3646
2809 3636
2913 3626
2923 3625
2933 3620
3026 3619
3031 3617
3039 3608
3160 3599
3329 3596
3504 3591
3589 3590
3648 3578
3725 3571
3787 3565
3946 3562
3978 3560
4272 3550
4373 3539
5126 3537
6808 3532
6965 3522
